c File: flat50_3_0.col
c
c SOURCE: Joseph Culberson (joe@cs.ualberta.ca)
c DESCRIPTION: Quasi-random coloring problem
c              generated with flatness = 0
c                             probability = 0.139
c                             known coloring = 3
c                             random seed = 1620
c              Creation Date:  Tue Jun  9 12:13:47 1998
c Maximum degree = 7 Minimum degree = 2
c p edge 50 115
c cnf created by edge2cnf
p cnf 150 545
-1 -2 0
-1 -3 0
-2 -3 0
1 2 3 0
-4 -5 0
-4 -6 0
-5 -6 0
4 5 6 0
-7 -8 0
-7 -9 0
-8 -9 0
7 8 9 0
-10 -11 0
-10 -12 0
-11 -12 0
10 11 12 0
-13 -14 0
-13 -15 0
-14 -15 0
13 14 15 0
-16 -17 0
-16 -18 0
-17 -18 0
16 17 18 0
-19 -20 0
-19 -21 0
-20 -21 0
19 20 21 0
-22 -23 0
-22 -24 0
-23 -24 0
22 23 24 0
-25 -26 0
-25 -27 0
-26 -27 0
25 26 27 0
-28 -29 0
-28 -30 0
-29 -30 0
28 29 30 0
-31 -32 0
-31 -33 0
-32 -33 0
31 32 33 0
-34 -35 0
-34 -36 0
-35 -36 0
34 35 36 0
-37 -38 0
-37 -39 0
-38 -39 0
37 38 39 0
-40 -41 0
-40 -42 0
-41 -42 0
40 41 42 0
-43 -44 0
-43 -45 0
-44 -45 0
43 44 45 0
-46 -47 0
-46 -48 0
-47 -48 0
46 47 48 0
-49 -50 0
-49 -51 0
-50 -51 0
49 50 51 0
-52 -53 0
-52 -54 0
-53 -54 0
52 53 54 0
-55 -56 0
-55 -57 0
-56 -57 0
55 56 57 0
-58 -59 0
-58 -60 0
-59 -60 0
58 59 60 0
-61 -62 0
-61 -63 0
-62 -63 0
61 62 63 0
-64 -65 0
-64 -66 0
-65 -66 0
64 65 66 0
-67 -68 0
-67 -69 0
-68 -69 0
67 68 69 0
-70 -71 0
-70 -72 0
-71 -72 0
70 71 72 0
-73 -74 0
-73 -75 0
-74 -75 0
73 74 75 0
-76 -77 0
-76 -78 0
-77 -78 0
76 77 78 0
-79 -80 0
-79 -81 0
-80 -81 0
79 80 81 0
-82 -83 0
-82 -84 0
-83 -84 0
82 83 84 0
-85 -86 0
-85 -87 0
-86 -87 0
85 86 87 0
-88 -89 0
-88 -90 0
-89 -90 0
88 89 90 0
-91 -92 0
-91 -93 0
-92 -93 0
91 92 93 0
-94 -95 0
-94 -96 0
-95 -96 0
94 95 96 0
-97 -98 0
-97 -99 0
-98 -99 0
97 98 99 0
-100 -101 0
-100 -102 0
-101 -102 0
100 101 102 0
-103 -104 0
-103 -105 0
-104 -105 0
103 104 105 0
-106 -107 0
-106 -108 0
-107 -108 0
106 107 108 0
-109 -110 0
-109 -111 0
-110 -111 0
109 110 111 0
-112 -113 0
-112 -114 0
-113 -114 0
112 113 114 0
-115 -116 0
-115 -117 0
-116 -117 0
115 116 117 0
-118 -119 0
-118 -120 0
-119 -120 0
118 119 120 0
-121 -122 0
-121 -123 0
-122 -123 0
121 122 123 0
-124 -125 0
-124 -126 0
-125 -126 0
124 125 126 0
-127 -128 0
-127 -129 0
-128 -129 0
127 128 129 0
-130 -131 0
-130 -132 0
-131 -132 0
130 131 132 0
-133 -134 0
-133 -135 0
-134 -135 0
133 134 135 0
-136 -137 0
-136 -138 0
-137 -138 0
136 137 138 0
-139 -140 0
-139 -141 0
-140 -141 0
139 140 141 0
-142 -143 0
-142 -144 0
-143 -144 0
142 143 144 0
-145 -146 0
-145 -147 0
-146 -147 0
145 146 147 0
-148 -149 0
-148 -150 0
-149 -150 0
148 149 150 0
-52 -1 0
-53 -2 0
-54 -3 0
-85 -1 0
-86 -2 0
-87 -3 0
-91 -1 0
-92 -2 0
-93 -3 0
-94 -1 0
-95 -2 0
-96 -3 0
-103 -1 0
-104 -2 0
-105 -3 0
-106 -1 0
-107 -2 0
-108 -3 0
-58 -4 0
-59 -5 0
-60 -6 0
-61 -4 0
-62 -5 0
-63 -6 0
-79 -4 0
-80 -5 0
-81 -6 0
-67 -7 0
-68 -8 0
-69 -9 0
-133 -7 0
-134 -8 0
-135 -9 0
-79 -10 0
-80 -11 0
-81 -12 0
-145 -10 0
-146 -11 0
-147 -12 0
-94 -13 0
-95 -14 0
-96 -15 0
-112 -13 0
-113 -14 0
-114 -15 0
-115 -13 0
-116 -14 0
-117 -15 0
-121 -13 0
-122 -14 0
-123 -15 0
-52 -16 0
-53 -17 0
-54 -18 0
-73 -16 0
-74 -17 0
-75 -18 0
-85 -16 0
-86 -17 0
-87 -18 0
-121 -16 0
-122 -17 0
-123 -18 0
-145 -16 0
-146 -17 0
-147 -18 0
-58 -19 0
-59 -20 0
-60 -21 0
-103 -19 0
-104 -20 0
-105 -21 0
-109 -19 0
-110 -20 0
-111 -21 0
-121 -19 0
-122 -20 0
-123 -21 0
-52 -22 0
-53 -23 0
-54 -24 0
-55 -22 0
-56 -23 0
-57 -24 0
-70 -22 0
-71 -23 0
-72 -24 0
-73 -22 0
-74 -23 0
-75 -24 0
-142 -22 0
-143 -23 0
-144 -24 0
-55 -25 0
-56 -26 0
-57 -27 0
-115 -25 0
-116 -26 0
-117 -27 0
-139 -25 0
-140 -26 0
-141 -27 0
-94 -28 0
-95 -29 0
-96 -30 0
-97 -28 0
-98 -29 0
-99 -30 0
-103 -28 0
-104 -29 0
-105 -30 0
-139 -28 0
-140 -29 0
-141 -30 0
-148 -28 0
-149 -29 0
-150 -30 0
-61 -31 0
-62 -32 0
-63 -33 0
-76 -31 0
-77 -32 0
-78 -33 0
-82 -31 0
-83 -32 0
-84 -33 0
-109 -31 0
-110 -32 0
-111 -33 0
-139 -31 0
-140 -32 0
-141 -33 0
-145 -31 0
-146 -32 0
-147 -33 0
-148 -31 0
-149 -32 0
-150 -33 0
-82 -34 0
-83 -35 0
-84 -36 0
-112 -34 0
-113 -35 0
-114 -36 0
-118 -34 0
-119 -35 0
-120 -36 0
-130 -34 0
-131 -35 0
-132 -36 0
-136 -34 0
-137 -35 0
-138 -36 0
-61 -37 0
-62 -38 0
-63 -39 0
-85 -37 0
-86 -38 0
-87 -39 0
-106 -37 0
-107 -38 0
-108 -39 0
-118 -37 0
-119 -38 0
-120 -39 0
-133 -37 0
-134 -38 0
-135 -39 0
-61 -40 0
-62 -41 0
-63 -42 0
-64 -40 0
-65 -41 0
-66 -42 0
-97 -40 0
-98 -41 0
-99 -42 0
-118 -40 0
-119 -41 0
-120 -42 0
-124 -40 0
-125 -41 0
-126 -42 0
-139 -40 0
-140 -41 0
-141 -42 0
-55 -43 0
-56 -44 0
-57 -45 0
-67 -43 0
-68 -44 0
-69 -45 0
-91 -43 0
-92 -44 0
-93 -45 0
-97 -43 0
-98 -44 0
-99 -45 0
-112 -43 0
-113 -44 0
-114 -45 0
-64 -46 0
-65 -47 0
-66 -48 0
-88 -46 0
-89 -47 0
-90 -48 0
-106 -46 0
-107 -47 0
-108 -48 0
-130 -46 0
-131 -47 0
-132 -48 0
-55 -49 0
-56 -50 0
-57 -51 0
-79 -49 0
-80 -50 0
-81 -51 0
-94 -49 0
-95 -50 0
-96 -51 0
-97 -49 0
-98 -50 0
-99 -51 0
-133 -49 0
-134 -50 0
-135 -51 0
-142 -49 0
-143 -50 0
-144 -51 0
-133 -55 0
-134 -56 0
-135 -57 0
-103 -58 0
-104 -59 0
-105 -60 0
-109 -58 0
-110 -59 0
-111 -60 0
-124 -58 0
-125 -59 0
-126 -60 0
-148 -58 0
-149 -59 0
-150 -60 0
-112 -61 0
-113 -62 0
-114 -63 0
-124 -61 0
-125 -62 0
-126 -63 0
-142 -64 0
-143 -65 0
-144 -66 0
-109 -67 0
-110 -68 0
-111 -69 0
-133 -67 0
-134 -68 0
-135 -69 0
-145 -67 0
-146 -68 0
-147 -69 0
-118 -70 0
-119 -71 0
-120 -72 0
-145 -70 0
-146 -71 0
-147 -72 0
-121 -73 0
-122 -74 0
-123 -75 0
-124 -73 0
-125 -74 0
-126 -75 0
-136 -73 0
-137 -74 0
-138 -75 0
-148 -73 0
-149 -74 0
-150 -75 0
-103 -76 0
-104 -77 0
-105 -78 0
-145 -76 0
-146 -77 0
-147 -78 0
-121 -79 0
-122 -80 0
-123 -81 0
-124 -79 0
-125 -80 0
-126 -81 0
-142 -79 0
-143 -80 0
-144 -81 0
-130 -82 0
-131 -83 0
-132 -84 0
-139 -82 0
-140 -83 0
-141 -84 0
-142 -82 0
-143 -83 0
-144 -84 0
-130 -85 0
-131 -86 0
-132 -87 0
-106 -88 0
-107 -89 0
-108 -90 0
-127 -88 0
-128 -89 0
-129 -90 0
-103 -91 0
-104 -92 0
-105 -93 0
-118 -91 0
-119 -92 0
-120 -93 0
-133 -91 0
-134 -92 0
-135 -93 0
-139 -91 0
-140 -92 0
-141 -93 0
-142 -94 0
-143 -95 0
-144 -96 0
-148 -94 0
-149 -95 0
-150 -96 0
-115 -97 0
-116 -98 0
-117 -99 0
-127 -97 0
-128 -98 0
-129 -99 0
-121 -100 0
-122 -101 0
-123 -102 0
-145 -100 0
-146 -101 0
-147 -102 0
